[runlim] version:		1.10
[runlim] time limit:		311040000 seconds
[runlim] real time limit:	600 seconds
[runlim] space limit:		8000 MB
[runlim] argv[0]:		python3
[runlim] argv[1]:		cp.py
[runlim] argv[2]:		graph02
[runlim] start:			Tue Dec 16 13:10:55 2025
[runlim] main pid:		28578
Building CP model...
Build time: 2.01s
Solving CP Optimizer...
 ! --------------------------------------------------- CP Optimizer 22.1.1.0 --
 ! Minimization problem - 14672 variables, 205077 constraints
 ! Presolve      : 205479 extractables eliminated
 ! LogVerbosity         = Terse
 ! Initial process time : 2.11s (2.09s extraction + 0.02s propagation)
 !  . Log search space  : 14672.0 (before), 14672.0 (after)
 !  . Memory usage      : 37.4 MB (before), 37.4 MB (after)
 ! Using parallel search with 12 workers.
 ! ----------------------------------------------------------------------------
 !          Best Branches  Non-fixed    W       Branch decision
                        0      14672                 -
 + New bound is 0
                        0      14672    1            -
 + New bound is 1
[runlim] sample:		35.2 time, 10.1 real, 1476.0 MB
 *            48      425  5.47s        6      (gap is 97.92%)
 *            47      610  5.54s        8      (gap is 97.87%)
 *            46      796  5.59s       12      (gap is 97.83%)
 *            44     3384  8.17s       12      (gap is 97.73%)
 *            43     7478  10.75s      12      (gap is 97.67%)
 *            42     7858  11.54s      12      (gap is 97.62%)
 *            41     8854  14.77s       6      (gap is 97.56%)
[runlim] sample:		99.5 time, 18.8 real, 1565.9 MB
 *            40     9604  15.86s       6      (gap is 97.50%)
 *            39    10487  17.18s       6      (gap is 97.44%)
 *            38    10894  17.57s       6      (gap is 97.37%)
 *            37     7032  17.86s      10      (gap is 97.30%)
 *            36     9529  19.70s       3      (gap is 97.22%)
 *            35    21105  22.27s       8      (gap is 97.14%)
 *            18    19829  23.27s       7      (gap is 94.44%)
[runlim] sample:		153.4 time, 28.8 real, 1687.9 MB
[runlim] sample:		212.0 time, 38.8 real, 1761.9 MB
[runlim] sample:		272.3 time, 48.8 real, 1812.1 MB
 *            17    47466  46.27s       8      (gap is 94.12%)
[runlim] sample:		332.3 time, 57.5 real, 1851.2 MB
 *            16    56629  57.45s       9      (gap is 93.75%)
[runlim] sample:		386.3 time, 67.5 real, 1892.1 MB
 *            15    67873  71.24s       8      (gap is 93.33%)
[runlim] sample:		447.2 time, 77.5 real, 1944.2 MB
 *            14    87315  78.84s       6      (gap is 92.86%)
 ! Time = 78.84s, Average fail depth = 819, Memory usage = 1.3 GB
 ! Current bound is 1 (gap is 92.86%)
 !          Best Branches  Non-fixed    W       Branch decision
[runlim] sample:		507.0 time, 86.2 real, 2000.7 MB
[runlim] sample:		561.3 time, 96.2 real, 2020.0 MB
[runlim] sample:		615.4 time, 106.2 real, 2040.0 MB
[runlim] sample:		677.4 time, 114.9 real, 2052.2 MB
[runlim] sample:		738.5 time, 124.9 real, 2063.0 MB
[runlim] sample:		796.3 time, 134.9 real, 2076.1 MB
[runlim] sample:		859.6 time, 143.6 real, 2085.4 MB
[runlim] sample:		923.5 time, 153.6 real, 2085.7 MB
[runlim] sample:		988.3 time, 163.6 real, 2095.5 MB
[runlim] sample:		1052.0 time, 173.6 real, 2109.4 MB
[runlim] sample:		1115.1 time, 182.3 real, 2117.2 MB
[runlim] sample:		1184.0 time, 192.3 real, 2117.5 MB
[runlim] sample:		1252.6 time, 202.3 real, 2132.5 MB
[runlim] sample:		1324.2 time, 211.0 real, 2141.9 MB
[runlim] sample:		1396.0 time, 221.0 real, 2141.9 MB
[runlim] sample:		1469.6 time, 231.0 real, 2143.6 MB
[runlim] sample:		1547.3 time, 239.7 real, 2155.4 MB
[runlim] sample:		1619.8 time, 249.7 real, 2155.5 MB
[runlim] sample:		1690.7 time, 259.7 real, 2155.6 MB
[runlim] sample:		1761.0 time, 268.4 real, 2160.2 MB
[runlim] sample:		1834.2 time, 278.4 real, 2160.2 MB
[runlim] sample:		1908.2 time, 288.4 real, 2173.0 MB
[runlim] sample:		1981.9 time, 298.4 real, 2173.2 MB
[runlim] sample:		2056.9 time, 307.1 real, 2173.2 MB
[runlim] sample:		2134.7 time, 317.1 real, 2173.2 MB
[runlim] sample:		2213.3 time, 327.1 real, 2173.2 MB
[runlim] sample:		2284.3 time, 335.8 real, 2173.2 MB
[runlim] sample:		2359.0 time, 345.8 real, 2173.2 MB
[runlim] sample:		2435.9 time, 355.8 real, 2173.7 MB
[runlim] sample:		2510.9 time, 364.5 real, 2185.6 MB
[runlim] sample:		2582.1 time, 374.5 real, 2186.6 MB
[runlim] sample:		2656.6 time, 384.5 real, 2190.1 MB
[runlim] sample:		2733.2 time, 393.2 real, 2195.1 MB
[runlim] sample:		2810.4 time, 403.2 real, 2195.9 MB
[runlim] sample:		2887.0 time, 413.2 real, 2196.7 MB
[runlim] sample:		2963.5 time, 423.2 real, 2196.7 MB
[runlim] sample:		3033.6 time, 431.9 real, 2196.7 MB
[runlim] sample:		3106.6 time, 441.9 real, 2196.7 MB
[runlim] sample:		3185.1 time, 451.9 real, 2197.2 MB
[runlim] sample:		3259.9 time, 460.6 real, 2197.4 MB
[runlim] sample:		3339.1 time, 470.6 real, 2197.4 MB
[runlim] sample:		3412.9 time, 480.6 real, 2197.4 MB
[runlim] sample:		3487.3 time, 489.3 real, 2197.4 MB
[runlim] sample:		3556.1 time, 499.3 real, 2197.4 MB
[runlim] sample:		3632.5 time, 509.3 real, 2197.7 MB
[runlim] sample:		3707.7 time, 518.0 real, 2197.7 MB
[runlim] sample:		3780.6 time, 528.0 real, 2197.7 MB
[runlim] sample:		3854.3 time, 538.0 real, 2197.7 MB
[runlim] sample:		3928.5 time, 548.0 real, 2197.9 MB
[runlim] sample:		3994.2 time, 556.7 real, 2197.9 MB
[runlim] sample:		4069.3 time, 566.7 real, 2198.1 MB
[runlim] sample:		4140.2 time, 576.7 real, 2198.1 MB
[runlim] sample:		4212.0 time, 585.4 real, 2198.1 MB
[runlim] sample:		4282.1 time, 595.4 real, 2198.7 MB
[runlim] end:			Tue Dec 16 13:20:55 2025
[runlim] status:		out of time
[runlim] result:		2
[runlim] children:		6226
[runlim] real:			600.10 seconds
[runlim] time:			4311.17 seconds
[runlim] space:			2198.7 MB
[runlim] samples:		6247
